; benchmark generated from python API
(set-info :status unknown)
(declare-fun x_0 () Int)
(declare-fun x_1 () Int)
(declare-fun x_2 () Int)
(declare-fun x_3 () Int)
(declare-fun x_4 () Int)
(declare-fun x_5 () Int)
(declare-fun x_6 () Int)
(declare-fun x_7 () Int)
(declare-fun x_8 () Int)
(declare-fun x_9 () Int)
(assert
 (let (($x18 (<= x_0 9)))
 (let (($x16 (>= x_0 1)))
 (and $x16 $x18))))
(assert
 (let (($x21 (<= x_1 9)))
 (let (($x20 (>= x_1 1)))
 (and $x20 $x21))))
(assert
 (let (($x24 (<= x_2 9)))
 (let (($x23 (>= x_2 1)))
 (and $x23 $x24))))
(assert
 (let (($x27 (<= x_3 9)))
 (let (($x26 (>= x_3 1)))
 (and $x26 $x27))))
(assert
 (let (($x30 (<= x_4 9)))
 (let (($x29 (>= x_4 1)))
 (and $x29 $x30))))
(assert
 (let (($x33 (<= x_5 9)))
 (let (($x32 (>= x_5 1)))
 (and $x32 $x33))))
(assert
 (let (($x36 (<= x_6 9)))
 (let (($x35 (>= x_6 1)))
 (and $x35 $x36))))
(assert
 (let (($x39 (<= x_7 9)))
 (let (($x38 (>= x_7 1)))
 (and $x38 $x39))))
(assert
 (let (($x42 (<= x_8 9)))
 (let (($x41 (>= x_8 1)))
 (and $x41 $x42))))
(assert
 (let (($x45 (<= x_9 9)))
 (let (($x44 (>= x_9 1)))
 (and $x44 $x45))))
(assert
 (let (($x576 (or (< x_8 9) (> x_8 9))))
 (let (($x573 (or (< x_7 9) (> x_7 9))))
 (let (($x570 (or (< x_6 9) (> x_6 9))))
 (let (($x567 (or (< x_5 9) (> x_5 9))))
 (let (($x564 (or (< x_4 9) (> x_4 9))))
 (let (($x561 (or (< x_3 9) (> x_3 9))))
 (let (($x558 (or (< x_2 9) (> x_2 9))))
 (let (($x555 (or (< x_1 9) (> x_1 9))))
 (let (($x585 (or (< x_0 9) (> x_0 9))))
 (let (($x609 (= x_9 9)))
 (let (($x579 (or (< x_9 9) (> x_9 9))))
 (let (($x606 (= x_8 9)))
 (let (($x603 (= x_7 9)))
 (let (($x600 (= x_6 9)))
 (let (($x597 (= x_5 9)))
 (let (($x594 (= x_4 9)))
 (let (($x591 (= x_3 9)))
 (let (($x588 (= x_2 9)))
 (let (($x582 (= x_1 9)))
 (let (($x552 (= x_0 9)))
 (let (($x516 (or (< x_8 8) (> x_8 8))))
 (let (($x513 (or (< x_7 8) (> x_7 8))))
 (let (($x510 (or (< x_6 8) (> x_6 8))))
 (let (($x507 (or (< x_5 8) (> x_5 8))))
 (let (($x504 (or (< x_4 8) (> x_4 8))))
 (let (($x501 (or (< x_3 8) (> x_3 8))))
 (let (($x498 (or (< x_2 8) (> x_2 8))))
 (let (($x495 (or (< x_1 8) (> x_1 8))))
 (let (($x525 (or (< x_0 8) (> x_0 8))))
 (let (($x549 (= x_9 8)))
 (let (($x519 (or (< x_9 8) (> x_9 8))))
 (let (($x546 (= x_8 8)))
 (let (($x543 (= x_7 8)))
 (let (($x540 (= x_6 8)))
 (let (($x537 (= x_5 8)))
 (let (($x534 (= x_4 8)))
 (let (($x531 (= x_3 8)))
 (let (($x528 (= x_2 8)))
 (let (($x522 (= x_1 8)))
 (let (($x492 (= x_0 8)))
 (let (($x455 (or (< x_8 7) (> x_8 7))))
 (let (($x452 (or (< x_7 7) (> x_7 7))))
 (let (($x449 (or (< x_6 7) (> x_6 7))))
 (let (($x446 (or (< x_5 7) (> x_5 7))))
 (let (($x443 (or (< x_4 7) (> x_4 7))))
 (let (($x440 (or (< x_3 7) (> x_3 7))))
 (let (($x437 (or (< x_2 7) (> x_2 7))))
 (let (($x434 (or (< x_1 7) (> x_1 7))))
 (let (($x464 (or (< x_0 7) (> x_0 7))))
 (let (($x488 (= x_9 7)))
 (let (($x458 (or (< x_9 7) (> x_9 7))))
 (let (($x485 (= x_8 7)))
 (let (($x482 (= x_7 7)))
 (let (($x479 (= x_6 7)))
 (let (($x476 (= x_5 7)))
 (let (($x473 (= x_4 7)))
 (let (($x470 (= x_3 7)))
 (let (($x467 (= x_2 7)))
 (let (($x461 (= x_1 7)))
 (let (($x431 (= x_0 7)))
 (let (($x394 (or (< x_8 6) (> x_8 6))))
 (let (($x391 (or (< x_7 6) (> x_7 6))))
 (let (($x388 (or (< x_6 6) (> x_6 6))))
 (let (($x385 (or (< x_5 6) (> x_5 6))))
 (let (($x382 (or (< x_4 6) (> x_4 6))))
 (let (($x379 (or (< x_3 6) (> x_3 6))))
 (let (($x376 (or (< x_2 6) (> x_2 6))))
 (let (($x373 (or (< x_1 6) (> x_1 6))))
 (let (($x403 (or (< x_0 6) (> x_0 6))))
 (let (($x427 (= x_9 6)))
 (let (($x397 (or (< x_9 6) (> x_9 6))))
 (let (($x424 (= x_8 6)))
 (let (($x421 (= x_7 6)))
 (let (($x418 (= x_6 6)))
 (let (($x415 (= x_5 6)))
 (let (($x412 (= x_4 6)))
 (let (($x409 (= x_3 6)))
 (let (($x406 (= x_2 6)))
 (let (($x400 (= x_1 6)))
 (let (($x370 (= x_0 6)))
 (let (($x333 (or (< x_8 5) (> x_8 5))))
 (let (($x330 (or (< x_7 5) (> x_7 5))))
 (let (($x327 (or (< x_6 5) (> x_6 5))))
 (let (($x324 (or (< x_5 5) (> x_5 5))))
 (let (($x321 (or (< x_4 5) (> x_4 5))))
 (let (($x318 (or (< x_3 5) (> x_3 5))))
 (let (($x315 (or (< x_2 5) (> x_2 5))))
 (let (($x312 (or (< x_1 5) (> x_1 5))))
 (let (($x342 (or (< x_0 5) (> x_0 5))))
 (let (($x366 (= x_9 5)))
 (let (($x336 (or (< x_9 5) (> x_9 5))))
 (let (($x363 (= x_8 5)))
 (let (($x360 (= x_7 5)))
 (let (($x357 (= x_6 5)))
 (let (($x354 (= x_5 5)))
 (let (($x351 (= x_4 5)))
 (let (($x348 (= x_3 5)))
 (let (($x345 (= x_2 5)))
 (let (($x339 (= x_1 5)))
 (let (($x309 (= x_0 5)))
 (let (($x272 (or (< x_8 4) (> x_8 4))))
 (let (($x269 (or (< x_7 4) (> x_7 4))))
 (let (($x266 (or (< x_6 4) (> x_6 4))))
 (let (($x263 (or (< x_5 4) (> x_5 4))))
 (let (($x260 (or (< x_4 4) (> x_4 4))))
 (let (($x257 (or (< x_3 4) (> x_3 4))))
 (let (($x254 (or (< x_2 4) (> x_2 4))))
 (let (($x251 (or (< x_1 4) (> x_1 4))))
 (let (($x281 (or (< x_0 4) (> x_0 4))))
 (let (($x305 (= x_9 4)))
 (let (($x275 (or (< x_9 4) (> x_9 4))))
 (let (($x302 (= x_8 4)))
 (let (($x299 (= x_7 4)))
 (let (($x296 (= x_6 4)))
 (let (($x293 (= x_5 4)))
 (let (($x290 (= x_4 4)))
 (let (($x287 (= x_3 4)))
 (let (($x284 (= x_2 4)))
 (let (($x278 (= x_1 4)))
 (let (($x248 (= x_0 4)))
 (let (($x211 (or (< x_8 3) (> x_8 3))))
 (let (($x208 (or (< x_7 3) (> x_7 3))))
 (let (($x205 (or (< x_6 3) (> x_6 3))))
 (let (($x202 (or (< x_5 3) (> x_5 3))))
 (let (($x199 (or (< x_4 3) (> x_4 3))))
 (let (($x196 (or (< x_3 3) (> x_3 3))))
 (let (($x193 (or (< x_2 3) (> x_2 3))))
 (let (($x190 (or (< x_1 3) (> x_1 3))))
 (let (($x220 (or (< x_0 3) (> x_0 3))))
 (let (($x244 (= x_9 3)))
 (let (($x214 (or (< x_9 3) (> x_9 3))))
 (let (($x241 (= x_8 3)))
 (let (($x238 (= x_7 3)))
 (let (($x235 (= x_6 3)))
 (let (($x232 (= x_5 3)))
 (let (($x229 (= x_4 3)))
 (let (($x226 (= x_3 3)))
 (let (($x223 (= x_2 3)))
 (let (($x217 (= x_1 3)))
 (let (($x187 (= x_0 3)))
 (let (($x150 (or (< x_8 2) (> x_8 2))))
 (let (($x147 (or (< x_7 2) (> x_7 2))))
 (let (($x144 (or (< x_6 2) (> x_6 2))))
 (let (($x141 (or (< x_5 2) (> x_5 2))))
 (let (($x138 (or (< x_4 2) (> x_4 2))))
 (let (($x135 (or (< x_3 2) (> x_3 2))))
 (let (($x132 (or (< x_2 2) (> x_2 2))))
 (let (($x129 (or (< x_1 2) (> x_1 2))))
 (let (($x159 (or (< x_0 2) (> x_0 2))))
 (let (($x183 (= x_9 2)))
 (let (($x153 (or (< x_9 2) (> x_9 2))))
 (let (($x180 (= x_8 2)))
 (let (($x177 (= x_7 2)))
 (let (($x174 (= x_6 2)))
 (let (($x171 (= x_5 2)))
 (let (($x168 (= x_4 2)))
 (let (($x165 (= x_3 2)))
 (let (($x162 (= x_2 2)))
 (let (($x156 (= x_1 2)))
 (let (($x126 (= x_0 2)))
 (let (($x89 (or (< x_8 1) (> x_8 1))))
 (let (($x86 (or (< x_7 1) (> x_7 1))))
 (let (($x83 (or (< x_6 1) (> x_6 1))))
 (let (($x80 (or (< x_5 1) (> x_5 1))))
 (let (($x77 (or (< x_4 1) (> x_4 1))))
 (let (($x74 (or (< x_3 1) (> x_3 1))))
 (let (($x71 (or (< x_2 1) (> x_2 1))))
 (let (($x68 (or (< x_1 1) (> x_1 1))))
 (let (($x98 (or (< x_0 1) (> x_0 1))))
 (let (($x122 (= x_9 1)))
 (let (($x92 (or (< x_9 1) (> x_9 1))))
 (let (($x119 (= x_8 1)))
 (let (($x116 (= x_7 1)))
 (let (($x113 (= x_6 1)))
 (let (($x110 (= x_5 1)))
 (let (($x107 (= x_4 1)))
 (let (($x104 (= x_3 1)))
 (let (($x101 (= x_2 1)))
 (let (($x95 (= x_1 1)))
 (let (($x65 (= x_0 1)))
 (and (=> $x65 (and $x68 $x71 $x74 $x77 $x80 $x83 $x86 $x89 $x92)) (=> $x95 (and $x98 $x71 $x74 $x77 $x80 $x83 $x86 $x89 $x92)) (=> $x101 (and $x98 $x68 $x74 $x77 $x80 $x83 $x86 $x89 $x92)) (=> $x104 (and $x98 $x68 $x71 $x77 $x80 $x83 $x86 $x89 $x92)) (=> $x107 (and $x98 $x68 $x71 $x74 $x80 $x83 $x86 $x89 $x92)) (=> $x110 (and $x98 $x68 $x71 $x74 $x77 $x83 $x86 $x89 $x92)) (=> $x113 (and $x98 $x68 $x71 $x74 $x77 $x80 $x86 $x89 $x92)) (=> $x116 (and $x98 $x68 $x71 $x74 $x77 $x80 $x83 $x89 $x92)) (=> $x119 (and $x98 $x68 $x71 $x74 $x77 $x80 $x83 $x86 $x92)) (=> $x122 (and $x98 $x68 $x71 $x74 $x77 $x80 $x83 $x86 $x89)) (=> $x126 (and $x129 $x132 $x135 $x138 $x141 $x144 $x147 $x150 $x153)) (=> $x156 (and $x159 $x132 $x135 $x138 $x141 $x144 $x147 $x150 $x153)) (=> $x162 (and $x159 $x129 $x135 $x138 $x141 $x144 $x147 $x150 $x153)) (=> $x165 (and $x159 $x129 $x132 $x138 $x141 $x144 $x147 $x150 $x153)) (=> $x168 (and $x159 $x129 $x132 $x135 $x141 $x144 $x147 $x150 $x153)) (=> $x171 (and $x159 $x129 $x132 $x135 $x138 $x144 $x147 $x150 $x153)) (=> $x174 (and $x159 $x129 $x132 $x135 $x138 $x141 $x147 $x150 $x153)) (=> $x177 (and $x159 $x129 $x132 $x135 $x138 $x141 $x144 $x150 $x153)) (=> $x180 (and $x159 $x129 $x132 $x135 $x138 $x141 $x144 $x147 $x153)) (=> $x183 (and $x159 $x129 $x132 $x135 $x138 $x141 $x144 $x147 $x150)) (=> $x187 (and $x190 $x193 $x196 $x199 $x202 $x205 $x208 $x211 $x214)) (=> $x217 (and $x220 $x193 $x196 $x199 $x202 $x205 $x208 $x211 $x214)) (=> $x223 (and $x220 $x190 $x196 $x199 $x202 $x205 $x208 $x211 $x214)) (=> $x226 (and $x220 $x190 $x193 $x199 $x202 $x205 $x208 $x211 $x214)) (=> $x229 (and $x220 $x190 $x193 $x196 $x202 $x205 $x208 $x211 $x214)) (=> $x232 (and $x220 $x190 $x193 $x196 $x199 $x205 $x208 $x211 $x214)) (=> $x235 (and $x220 $x190 $x193 $x196 $x199 $x202 $x208 $x211 $x214)) (=> $x238 (and $x220 $x190 $x193 $x196 $x199 $x202 $x205 $x211 $x214)) (=> $x241 (and $x220 $x190 $x193 $x196 $x199 $x202 $x205 $x208 $x214)) (=> $x244 (and $x220 $x190 $x193 $x196 $x199 $x202 $x205 $x208 $x211)) (=> $x248 (and $x251 $x254 $x257 $x260 $x263 $x266 $x269 $x272 $x275)) (=> $x278 (and $x281 $x254 $x257 $x260 $x263 $x266 $x269 $x272 $x275)) (=> $x284 (and $x281 $x251 $x257 $x260 $x263 $x266 $x269 $x272 $x275)) (=> $x287 (and $x281 $x251 $x254 $x260 $x263 $x266 $x269 $x272 $x275)) (=> $x290 (and $x281 $x251 $x254 $x257 $x263 $x266 $x269 $x272 $x275)) (=> $x293 (and $x281 $x251 $x254 $x257 $x260 $x266 $x269 $x272 $x275)) (=> $x296 (and $x281 $x251 $x254 $x257 $x260 $x263 $x269 $x272 $x275)) (=> $x299 (and $x281 $x251 $x254 $x257 $x260 $x263 $x266 $x272 $x275)) (=> $x302 (and $x281 $x251 $x254 $x257 $x260 $x263 $x266 $x269 $x275)) (=> $x305 (and $x281 $x251 $x254 $x257 $x260 $x263 $x266 $x269 $x272)) (=> $x309 (and $x312 $x315 $x318 $x321 $x324 $x327 $x330 $x333 $x336)) (=> $x339 (and $x342 $x315 $x318 $x321 $x324 $x327 $x330 $x333 $x336)) (=> $x345 (and $x342 $x312 $x318 $x321 $x324 $x327 $x330 $x333 $x336)) (=> $x348 (and $x342 $x312 $x315 $x321 $x324 $x327 $x330 $x333 $x336)) (=> $x351 (and $x342 $x312 $x315 $x318 $x324 $x327 $x330 $x333 $x336)) (=> $x354 (and $x342 $x312 $x315 $x318 $x321 $x327 $x330 $x333 $x336)) (=> $x357 (and $x342 $x312 $x315 $x318 $x321 $x324 $x330 $x333 $x336)) (=> $x360 (and $x342 $x312 $x315 $x318 $x321 $x324 $x327 $x333 $x336)) (=> $x363 (and $x342 $x312 $x315 $x318 $x321 $x324 $x327 $x330 $x336)) (=> $x366 (and $x342 $x312 $x315 $x318 $x321 $x324 $x327 $x330 $x333)) (=> $x370 (and $x373 $x376 $x379 $x382 $x385 $x388 $x391 $x394 $x397)) (=> $x400 (and $x403 $x376 $x379 $x382 $x385 $x388 $x391 $x394 $x397)) (=> $x406 (and $x403 $x373 $x379 $x382 $x385 $x388 $x391 $x394 $x397)) (=> $x409 (and $x403 $x373 $x376 $x382 $x385 $x388 $x391 $x394 $x397)) (=> $x412 (and $x403 $x373 $x376 $x379 $x385 $x388 $x391 $x394 $x397)) (=> $x415 (and $x403 $x373 $x376 $x379 $x382 $x388 $x391 $x394 $x397)) (=> $x418 (and $x403 $x373 $x376 $x379 $x382 $x385 $x391 $x394 $x397)) (=> $x421 (and $x403 $x373 $x376 $x379 $x382 $x385 $x388 $x394 $x397)) (=> $x424 (and $x403 $x373 $x376 $x379 $x382 $x385 $x388 $x391 $x397)) (=> $x427 (and $x403 $x373 $x376 $x379 $x382 $x385 $x388 $x391 $x394)) (=> $x431 (and $x434 $x437 $x440 $x443 $x446 $x449 $x452 $x455 $x458)) (=> $x461 (and $x464 $x437 $x440 $x443 $x446 $x449 $x452 $x455 $x458)) (=> $x467 (and $x464 $x434 $x440 $x443 $x446 $x449 $x452 $x455 $x458)) (=> $x470 (and $x464 $x434 $x437 $x443 $x446 $x449 $x452 $x455 $x458)) (=> $x473 (and $x464 $x434 $x437 $x440 $x446 $x449 $x452 $x455 $x458)) (=> $x476 (and $x464 $x434 $x437 $x440 $x443 $x449 $x452 $x455 $x458)) (=> $x479 (and $x464 $x434 $x437 $x440 $x443 $x446 $x452 $x455 $x458)) (=> $x482 (and $x464 $x434 $x437 $x440 $x443 $x446 $x449 $x455 $x458)) (=> $x485 (and $x464 $x434 $x437 $x440 $x443 $x446 $x449 $x452 $x458)) (=> $x488 (and $x464 $x434 $x437 $x440 $x443 $x446 $x449 $x452 $x455)) (=> $x492 (and $x495 $x498 $x501 $x504 $x507 $x510 $x513 $x516 $x519)) (=> $x522 (and $x525 $x498 $x501 $x504 $x507 $x510 $x513 $x516 $x519)) (=> $x528 (and $x525 $x495 $x501 $x504 $x507 $x510 $x513 $x516 $x519)) (=> $x531 (and $x525 $x495 $x498 $x504 $x507 $x510 $x513 $x516 $x519)) (=> $x534 (and $x525 $x495 $x498 $x501 $x507 $x510 $x513 $x516 $x519)) (=> $x537 (and $x525 $x495 $x498 $x501 $x504 $x510 $x513 $x516 $x519)) (=> $x540 (and $x525 $x495 $x498 $x501 $x504 $x507 $x513 $x516 $x519)) (=> $x543 (and $x525 $x495 $x498 $x501 $x504 $x507 $x510 $x516 $x519)) (=> $x546 (and $x525 $x495 $x498 $x501 $x504 $x507 $x510 $x513 $x519)) (=> $x549 (and $x525 $x495 $x498 $x501 $x504 $x507 $x510 $x513 $x516)) (=> $x552 (and $x555 $x558 $x561 $x564 $x567 $x570 $x573 $x576 $x579)) (=> $x582 (and $x585 $x558 $x561 $x564 $x567 $x570 $x573 $x576 $x579)) (=> $x588 (and $x585 $x555 $x561 $x564 $x567 $x570 $x573 $x576 $x579)) (=> $x591 (and $x585 $x555 $x558 $x564 $x567 $x570 $x573 $x576 $x579)) (=> $x594 (and $x585 $x555 $x558 $x561 $x567 $x570 $x573 $x576 $x579)) (=> $x597 (and $x585 $x555 $x558 $x561 $x564 $x570 $x573 $x576 $x579)) (=> $x600 (and $x585 $x555 $x558 $x561 $x564 $x567 $x573 $x576 $x579)) (=> $x603 (and $x585 $x555 $x558 $x561 $x564 $x567 $x570 $x576 $x579)) (=> $x606 (and $x585 $x555 $x558 $x561 $x564 $x567 $x570 $x573 $x579)) (=> $x609 (and $x585 $x555 $x558 $x561 $x564 $x567 $x570 $x573 $x576))))))))))))))))))))))))))))))))))))))))))))))))))))))))))))))))))))))))))))))))))))))))))))))))))))))))))))))))))))))))))))))))))))))))))))))))))))))))))))))))))))))))))))))))))))))))
(check-sat)
